1628056800
1628071200
1627884000
1627918200
1627970400
1628004600
1628144100
1628175600
1628488800
1628523000
1628575200
1628609400
1628661600
1628695800
1628748000
1628778600
1628834400
1628867700
1629093600
1629118980
1629266400
1629299760
1629352800
1629384660
1629439200
1629466500
1629786600
1629698400
1629729000
1629815400
1629957600
1629988200
1629871200
1629901800
1630044000
1630065900
1630303200
1630333800
1630389600
1630420200
